************************************************************************
file with basedata            : mm56_.bas
initial value random generator: 2083613613
************************************************************************
projects                      :  1
jobs (incl. supersource/sink ):  12
horizon                       :  84
RESOURCES
  - renewable                 :  2   R
  - nonrenewable              :  2   N
  - doubly constrained        :  0   D
************************************************************************
PROJECT INFORMATION:
pronr.  #jobs rel.date duedate tardcost  MPM-Time
    1     10      0       15        3       15
************************************************************************
PRECEDENCE RELATIONS:
jobnr.    #modes  #successors   successors
   0        1          3           1   2   3
   1        3          1           4
   2        3          2           7   8
   3        3          2           5   6
   4        3          1          10
   5        3          2           7   8
   6        3          3           7   8   9
   7        3          1          10
   8        3          1          11
   9        3          1          11
  10        3          1          11
  11        1          0        
************************************************************************
REQUESTS/DURATIONS:
jobnr. mode duration  R 1  R 2  R 3  R 4  E(W 1)  E(W 2)
------------------------------------------------------------------------
  0      1     0       0    0    0    0     0       0
  1      1     5       5    5    8    5    50      65
  2      1     1       7    9    7    7    16      14
  3      1     1       3    4    9    6     7      15
  4      1     1       6    5    6    7    11      13
  5      1     1      10    4    7    3    14      10
  6      1     7       9   10    5    8    133      91
  7      1     3       4    1    5   10    18      45
  8      1     2       9    8    7    7    34      28
  9      1     7       4    8    2    8    84      70
 10      1     2       7    6    3    9    26      24
 11      1     0       0    0    0    0     0       0
************************************************************************
RESOURCEAVAILABILITIES:
  R 1  R 2
   36   130
************************************************************************
RESOURCE LIMITS:
jobnr.  l(R 1)  u(R 1)  l(R 2)  u(R 2)
------------------------------------------------------------------------
  0        0       0       0       0
  1        6      10       7      13
  2        9      16       8      14
  3        4       7       8      15
  4        6      11       7      13
  5        7      14       6      10
  6       10      19       7      13
  7        3       6       8      15
  8        9      17       8      14
  9        6      12       5      10
 10        7      13       7      12
 11        0       0       0       0
************************************************************************
SCENARIOS:
------------------------------------------------------------------------
RESOURCE k = 1
s = 1: (0, 46, 11, 11, 18, 13, 115, 17, 26, 56, 27, 0)
s = 2: (0, 29, 18, 5, 9, 12, 166, 27, 33, 88, 30, 0)
s = 3: (0, 43, 20, 6, 16, 11, 85, 17, 34, 76, 16, 0)
s = 4: (0, 62, 15, 7, 13, 15, 132, 14, 51, 96, 28, 0)
s = 5: (0, 37, 13, 6, 10, 14, 91, 25, 31, 119, 37, 0)
s = 6: (0, 33, 18, 10, 17, 17, 185, 15, 33, 103, 26, 0)
s = 7: (0, 48, 14, 10, 10, 9, 226, 12, 30, 63, 19, 0)
s = 8: (0, 42, 12, 6, 12, 11, 128, 15, 25, 95, 22, 0)
s = 9: (0, 72, 24, 11, 11, 9, 78, 15, 38, 87, 40, 0)
s = 10: (0, 49, 18, 6, 13, 8, 162, 21, 31, 84, 27, 0)
s = 11: (0, 34, 15, 7, 8, 21, 105, 18, 34, 95, 19, 0)
s = 12: (0, 39, 31, 12, 10, 11, 151, 22, 30, 113, 23, 0)
s = 13: (0, 46, 19, 9, 11, 19, 134, 21, 38, 91, 25, 0)
s = 14: (0, 32, 28, 9, 7, 13, 186, 30, 37, 108, 19, 0)
s = 15: (0, 55, 23, 10, 11, 19, 132, 16, 51, 103, 25, 0)
s = 16: (0, 52, 17, 11, 8, 10, 80, 19, 30, 112, 17, 0)
s = 17: (0, 46, 18, 7, 10, 11, 100, 15, 60, 131, 27, 0)
s = 18: (0, 80, 14, 7, 8, 10, 93, 23, 43, 70, 29, 0)
s = 19: (0, 36, 13, 6, 11, 19, 212, 19, 34, 55, 34, 0)
s = 20: (0, 27, 18, 4, 10, 16, 107, 13, 23, 119, 37, 0)
s = 21: (0, 31, 15, 8, 8, 17, 151, 19, 32, 53, 36, 0)
s = 22: (0, 44, 11, 10, 12, 14, 148, 15, 41, 87, 25, 0)
s = 23: (0, 60, 10, 5, 14, 10, 144, 23, 64, 60, 34, 0)
s = 24: (0, 63, 12, 6, 8, 15, 120, 17, 30, 108, 35, 0)
s = 25: (0, 37, 13, 5, 11, 12, 205, 14, 51, 56, 23, 0)
s = 26: (0, 79, 15, 6, 11, 13, 93, 24, 25, 69, 40, 0)
s = 27: (0, 60, 17, 9, 10, 11, 150, 18, 23, 91, 35, 0)
s = 28: (0, 44, 13, 10, 13, 17, 181, 19, 23, 56, 34, 0)
s = 29: (0, 52, 13, 6, 8, 13, 207, 11, 22, 97, 29, 0)
s = 30: (0, 81, 21, 6, 16, 14, 109, 12, 47, 95, 25, 0)
s = 31: (0, 38, 28, 9, 11, 20, 106, 13, 47, 61, 30, 0)
s = 32: (0, 68, 13, 7, 15, 10, 157, 24, 23, 122, 31, 0)
s = 33: (0, 60, 16, 6, 14, 16, 84, 29, 27, 82, 38, 0)
s = 34: (0, 67, 29, 7, 8, 18, 148, 15, 40, 103, 25, 0)
s = 35: (0, 66, 12, 9, 13, 15, 106, 12, 36, 59, 20, 0)
s = 36: (0, 37, 13, 6, 10, 17, 114, 16, 19, 78, 39, 0)
s = 37: (0, 36, 14, 6, 10, 16, 144, 15, 28, 56, 15, 0)
s = 38: (0, 45, 18, 8, 12, 21, 133, 27, 25, 56, 20, 0)
s = 39: (0, 61, 11, 5, 11, 14, 93, 14, 30, 148, 25, 0)
s = 40: (0, 49, 14, 7, 18, 12, 103, 16, 29, 56, 18, 0)
s = 41: (0, 42, 11, 4, 7, 9, 75, 18, 27, 109, 22, 0)
s = 42: (0, 65, 24, 6, 18, 14, 114, 13, 29, 62, 43, 0)
s = 43: (0, 48, 18, 8, 16, 14, 151, 20, 35, 94, 33, 0)
s = 44: (0, 54, 13, 5, 15, 20, 158, 22, 24, 124, 19, 0)
s = 45: (0, 42, 20, 7, 11, 12, 95, 26, 48, 74, 16, 0)
s = 46: (0, 53, 11, 12, 8, 23, 117, 14, 48, 117, 29, 0)
s = 47: (0, 31, 22, 8, 15, 13, 97, 17, 44, 112, 29, 0)
s = 48: (0, 31, 26, 8, 12, 12, 146, 26, 31, 60, 23, 0)
s = 49: (0, 44, 21, 12, 21, 11, 117, 16, 30, 87, 14, 0)
s = 50: (0, 29, 19, 7, 14, 11, 173, 13, 61, 103, 18, 0)
s = 51: (0, 57, 15, 7, 11, 9, 136, 11, 39, 86, 33, 0)
s = 52: (0, 43, 10, 8, 9, 15, 75, 25, 35, 44, 39, 0)
s = 53: (0, 45, 14, 5, 10, 9, 127, 16, 40, 63, 27, 0)
s = 54: (0, 54, 13, 10, 9, 12, 134, 25, 31, 75, 22, 0)
s = 55: (0, 52, 13, 6, 13, 15, 169, 19, 30, 56, 18, 0)
s = 56: (0, 66, 18, 7, 9, 11, 111, 18, 30, 135, 28, 0)
s = 57: (0, 55, 19, 8, 11, 10, 180, 20, 46, 103, 25, 0)
s = 58: (0, 33, 12, 9, 12, 8, 201, 23, 52, 87, 15, 0)
s = 59: (0, 33, 16, 7, 11, 10, 104, 16, 56, 141, 32, 0)
s = 60: (0, 34, 26, 5, 10, 19, 112, 23, 39, 61, 22, 0)
s = 61: (0, 45, 15, 7, 9, 22, 85, 19, 22, 54, 37, 0)
s = 62: (0, 64, 14, 8, 18, 10, 137, 32, 32, 83, 21, 0)
s = 63: (0, 47, 14, 13, 12, 11, 189, 17, 35, 130, 28, 0)
s = 64: (0, 42, 19, 12, 10, 24, 160, 12, 33, 72, 18, 0)
s = 65: (0, 42, 16, 6, 13, 16, 99, 15, 31, 81, 38, 0)
s = 66: (0, 55, 22, 5, 11, 12, 121, 26, 40, 131, 20, 0)
s = 67: (0, 56, 19, 8, 11, 20, 121, 22, 35, 151, 26, 0)
s = 68: (0, 43, 15, 8, 15, 13, 154, 13, 44, 66, 24, 0)
s = 69: (0, 45, 19, 6, 11, 11, 119, 16, 28, 69, 26, 0)
s = 70: (0, 57, 15, 8, 15, 12, 119, 15, 40, 101, 19, 0)
s = 71: (0, 46, 20, 6, 11, 14, 167, 14, 26, 111, 17, 0)
s = 72: (0, 66, 19, 8, 10, 15, 82, 15, 27, 90, 33, 0)
s = 73: (0, 39, 11, 11, 10, 11, 200, 29, 33, 87, 25, 0)
s = 74: (0, 68, 11, 6, 7, 12, 104, 14, 27, 107, 35, 0)
s = 75: (0, 72, 20, 9, 13, 11, 151, 20, 25, 87, 18, 0)
s = 76: (0, 60, 18, 7, 16, 13, 86, 22, 45, 74, 30, 0)
s = 77: (0, 64, 17, 8, 15, 8, 184, 14, 31, 85, 25, 0)
s = 78: (0, 55, 11, 7, 11, 9, 123, 17, 29, 79, 23, 0)
s = 79: (0, 69, 17, 8, 16, 13, 77, 21, 39, 88, 31, 0)
s = 80: (0, 79, 16, 6, 9, 11, 145, 19, 20, 115, 19, 0)
s = 81: (0, 78, 19, 8, 14, 8, 133, 20, 26, 68, 24, 0)
s = 82: (0, 38, 24, 8, 8, 20, 125, 13, 34, 105, 17, 0)
s = 83: (0, 78, 15, 6, 7, 16, 105, 18, 43, 61, 28, 0)
s = 84: (0, 42, 23, 5, 12, 16, 214, 12, 30, 91, 30, 0)
s = 85: (0, 45, 19, 5, 9, 21, 129, 21, 19, 46, 17, 0)
s = 86: (0, 32, 16, 7, 10, 12, 127, 20, 32, 77, 22, 0)
s = 87: (0, 44, 24, 7, 8, 17, 110, 15, 34, 94, 35, 0)
s = 88: (0, 73, 17, 11, 9, 19, 164, 22, 41, 56, 49, 0)
s = 89: (0, 37, 18, 10, 14, 16, 178, 15, 36, 48, 19, 0)
s = 90: (0, 75, 16, 8, 16, 17, 138, 22, 33, 74, 26, 0)
s = 91: (0, 53, 19, 12, 17, 9, 148, 25, 19, 55, 32, 0)
s = 92: (0, 59, 18, 6, 9, 11, 70, 21, 39, 69, 24, 0)
s = 93: (0, 32, 16, 7, 20, 19, 162, 20, 51, 62, 27, 0)
s = 94: (0, 42, 17, 10, 14, 18, 131, 21, 43, 73, 37, 0)
s = 95: (0, 52, 18, 9, 10, 15, 110, 17, 43, 84, 36, 0)
s = 96: (0, 66, 11, 11, 9, 11, 224, 16, 23, 113, 19, 0)
s = 97: (0, 76, 11, 5, 10, 13, 162, 13, 56, 72, 28, 0)
s = 98: (0, 66, 15, 9, 14, 18, 73, 17, 26, 62, 21, 0)
s = 99: (0, 33, 17, 8, 10, 13, 226, 22, 26, 71, 28, 0)
s = 100: (0, 45, 24, 8, 8, 14, 199, 14, 38, 69, 15, 0)
s = 101: (0, 34, 12, 10, 16, 17, 146, 26, 28, 76, 36, 0)
s = 102: (0, 32, 17, 10, 7, 8, 90, 17, 23, 93, 25, 0)
s = 103: (0, 49, 18, 9, 13, 12, 126, 15, 21, 94, 20, 0)
s = 104: (0, 42, 19, 4, 16, 14, 131, 13, 39, 89, 22, 0)
s = 105: (0, 60, 13, 5, 11, 8, 140, 23, 37, 52, 25, 0)
s = 106: (0, 51, 17, 9, 11, 12, 124, 13, 27, 78, 26, 0)
s = 107: (0, 83, 11, 9, 13, 15, 87, 15, 44, 81, 22, 0)
s = 108: (0, 33, 10, 11, 11, 13, 107, 22, 27, 58, 17, 0)
s = 109: (0, 55, 11, 7, 14, 12, 100, 24, 29, 140, 20, 0)
s = 110: (0, 37, 18, 5, 15, 9, 178, 20, 36, 72, 24, 0)
s = 111: (0, 70, 16, 9, 12, 14, 165, 20, 33, 71, 24, 0)
s = 112: (0, 55, 19, 8, 9, 12, 105, 17, 27, 81, 27, 0)
s = 113: (0, 47, 12, 9, 14, 14, 164, 15, 29, 61, 22, 0)
s = 114: (0, 36, 16, 6, 15, 15, 89, 16, 30, 85, 20, 0)
s = 115: (0, 33, 16, 6, 7, 13, 106, 22, 48, 117, 19, 0)
s = 116: (0, 75, 13, 9, 8, 10, 138, 12, 27, 81, 19, 0)
s = 117: (0, 54, 14, 6, 18, 13, 187, 14, 26, 78, 37, 0)
s = 118: (0, 62, 14, 6, 10, 20, 77, 22, 30, 112, 21, 0)
s = 119: (0, 62, 21, 8, 12, 24, 134, 22, 66, 85, 24, 0)
s = 120: (0, 51, 23, 7, 12, 9, 113, 21, 46, 84, 40, 0)
s = 121: (0, 73, 26, 7, 10, 16, 117, 14, 33, 67, 23, 0)
s = 122: (0, 61, 13, 9, 12, 12, 91, 16, 51, 82, 27, 0)
s = 123: (0, 42, 13, 10, 12, 13, 162, 13, 33, 130, 34, 0)
s = 124: (0, 42, 11, 10, 14, 19, 121, 13, 53, 70, 24, 0)
s = 125: (0, 56, 14, 6, 15, 15, 119, 15, 39, 105, 27, 0)
s = 126: (0, 75, 18, 7, 11, 8, 229, 18, 25, 110, 24, 0)
s = 127: (0, 46, 12, 5, 12, 13, 87, 29, 35, 77, 20, 0)
s = 128: (0, 70, 18, 6, 7, 10, 190, 25, 32, 120, 27, 0)
s = 129: (0, 36, 20, 7, 8, 18, 176, 20, 31, 127, 19, 0)
s = 130: (0, 61, 16, 7, 8, 19, 155, 13, 26, 64, 32, 0)
s = 131: (0, 72, 23, 7, 9, 12, 80, 11, 45, 80, 17, 0)
s = 132: (0, 44, 16, 5, 18, 16, 211, 13, 27, 89, 18, 0)
s = 133: (0, 36, 16, 9, 18, 17, 99, 14, 41, 71, 34, 0)
s = 134: (0, 47, 20, 8, 8, 15, 154, 21, 25, 76, 30, 0)
s = 135: (0, 37, 20, 5, 14, 22, 154, 25, 29, 78, 42, 0)
s = 136: (0, 74, 26, 10, 8, 13, 109, 16, 70, 136, 23, 0)
s = 137: (0, 49, 12, 5, 14, 15, 125, 30, 35, 96, 18, 0)
s = 138: (0, 59, 19, 7, 14, 24, 240, 12, 23, 81, 19, 0)
s = 139: (0, 40, 13, 10, 8, 18, 155, 20, 23, 60, 41, 0)
s = 140: (0, 86, 12, 5, 12, 16, 181, 19, 20, 81, 23, 0)
s = 141: (0, 57, 15, 6, 15, 10, 76, 17, 47, 66, 24, 0)
s = 142: (0, 78, 27, 5, 13, 11, 197, 19, 41, 108, 16, 0)
s = 143: (0, 49, 17, 8, 18, 12, 99, 21, 47, 98, 29, 0)
s = 144: (0, 52, 22, 12, 12, 12, 114, 28, 30, 79, 20, 0)
s = 145: (0, 67, 13, 5, 17, 14, 113, 12, 33, 69, 28, 0)
s = 146: (0, 63, 14, 8, 10, 16, 122, 18, 47, 94, 19, 0)
s = 147: (0, 55, 10, 10, 9, 22, 123, 19, 23, 90, 43, 0)
s = 148: (0, 54, 11, 8, 12, 23, 84, 16, 47, 97, 34, 0)
s = 149: (0, 85, 14, 5, 15, 17, 174, 14, 46, 90, 18, 0)
s = 150: (0, 50, 21, 6, 11, 19, 197, 27, 38, 90, 19, 0)
s = 151: (0, 44, 17, 8, 12, 21, 105, 29, 22, 114, 40, 0)
s = 152: (0, 53, 20, 4, 17, 10, 173, 27, 40, 66, 41, 0)
s = 153: (0, 33, 13, 5, 16, 11, 126, 22, 35, 60, 31, 0)
s = 154: (0, 34, 16, 8, 13, 11, 152, 21, 35, 128, 24, 0)
s = 155: (0, 54, 19, 6, 13, 17, 106, 13, 22, 64, 23, 0)
s = 156: (0, 48, 21, 8, 10, 13, 127, 15, 25, 95, 42, 0)
s = 157: (0, 73, 21, 7, 7, 14, 160, 22, 30, 63, 15, 0)
s = 158: (0, 64, 14, 9, 13, 11, 112, 22, 22, 84, 24, 0)
s = 159: (0, 46, 21, 7, 11, 12, 154, 23, 29, 74, 20, 0)
s = 160: (0, 43, 14, 7, 8, 15, 83, 22, 30, 61, 20, 0)
s = 161: (0, 28, 10, 7, 18, 21, 140, 21, 29, 67, 37, 0)
s = 162: (0, 60, 16, 7, 18, 14, 119, 25, 35, 86, 18, 0)
s = 163: (0, 59, 16, 7, 16, 14, 108, 17, 26, 74, 26, 0)
s = 164: (0, 57, 15, 5, 17, 11, 113, 11, 41, 71, 38, 0)
s = 165: (0, 58, 11, 5, 9, 9, 124, 27, 29, 103, 16, 0)
s = 166: (0, 42, 15, 9, 6, 12, 167, 12, 33, 78, 29, 0)
s = 167: (0, 44, 22, 9, 14, 17, 141, 18, 34, 104, 30, 0)
s = 168: (0, 36, 12, 10, 14, 12, 88, 27, 25, 45, 19, 0)
s = 169: (0, 31, 27, 7, 11, 19, 133, 16, 23, 113, 27, 0)
s = 170: (0, 51, 16, 7, 11, 23, 106, 23, 28, 61, 31, 0)
s = 171: (0, 48, 14, 5, 9, 16, 84, 20, 23, 92, 31, 0)
s = 172: (0, 32, 13, 10, 12, 17, 89, 15, 30, 76, 19, 0)
s = 173: (0, 74, 19, 5, 18, 9, 222, 15, 38, 99, 38, 0)
s = 174: (0, 49, 15, 6, 15, 11, 156, 15, 33, 116, 40, 0)
s = 175: (0, 37, 15, 5, 19, 12, 129, 15, 36, 90, 19, 0)
s = 176: (0, 32, 11, 7, 10, 21, 101, 25, 20, 102, 24, 0)
s = 177: (0, 78, 10, 7, 8, 20, 74, 18, 40, 106, 17, 0)
s = 178: (0, 37, 29, 5, 11, 14, 172, 31, 41, 69, 47, 0)
s = 179: (0, 36, 10, 12, 9, 17, 164, 23, 23, 75, 32, 0)
s = 180: (0, 83, 17, 9, 16, 12, 142, 18, 35, 49, 26, 0)
s = 181: (0, 41, 25, 10, 9, 16, 86, 15, 23, 60, 36, 0)
s = 182: (0, 54, 19, 5, 10, 10, 137, 25, 35, 80, 17, 0)
s = 183: (0, 39, 16, 5, 9, 15, 84, 15, 38, 82, 28, 0)
s = 184: (0, 35, 11, 6, 17, 14, 128, 21, 56, 77, 32, 0)
s = 185: (0, 62, 11, 6, 13, 12, 227, 15, 36, 101, 29, 0)
s = 186: (0, 36, 22, 8, 11, 13, 80, 17, 37, 55, 18, 0)
s = 187: (0, 66, 10, 5, 11, 11, 80, 15, 31, 113, 38, 0)
s = 188: (0, 67, 26, 10, 11, 20, 85, 16, 34, 49, 22, 0)
s = 189: (0, 51, 23, 6, 13, 20, 115, 16, 28, 73, 26, 0)
s = 190: (0, 34, 20, 8, 11, 13, 100, 16, 20, 60, 20, 0)
s = 191: (0, 50, 22, 8, 7, 12, 127, 16, 52, 68, 22, 0)
s = 192: (0, 38, 19, 5, 17, 19, 188, 23, 34, 100, 29, 0)
s = 193: (0, 35, 16, 5, 19, 23, 142, 21, 31, 83, 22, 0)
s = 194: (0, 64, 10, 8, 8, 14, 121, 12, 61, 71, 46, 0)
s = 195: (0, 59, 13, 5, 11, 17, 103, 28, 27, 97, 27, 0)
s = 196: (0, 48, 9, 6, 8, 13, 155, 28, 33, 71, 28, 0)
s = 197: (0, 33, 20, 7, 14, 16, 82, 16, 21, 97, 36, 0)
s = 198: (0, 32, 19, 8, 10, 20, 93, 13, 20, 109, 33, 0)
s = 199: (0, 38, 17, 10, 13, 13, 209, 20, 39, 70, 28, 0)
s = 200: (0, 66, 16, 10, 11, 19, 159, 22, 25, 83, 21, 0)
------------------------------------------------------------------------
RESOURCE k = 2
s = 1: (0, 59, 9, 22, 21, 9, 79, 41, 22, 47, 25, 0)
s = 2: (0, 38, 16, 9, 11, 9, 114, 67, 27, 74, 28, 0)
s = 3: (0, 55, 18, 12, 18, 8, 58, 42, 28, 64, 14, 0)
s = 4: (0, 80, 13, 14, 16, 11, 90, 34, 42, 80, 26, 0)
s = 5: (0, 48, 11, 13, 12, 10, 62, 62, 26, 99, 34, 0)
s = 6: (0, 43, 16, 20, 20, 12, 127, 36, 27, 86, 24, 0)
s = 7: (0, 62, 12, 21, 12, 7, 155, 29, 25, 53, 18, 0)
s = 8: (0, 54, 11, 12, 14, 8, 88, 37, 20, 79, 20, 0)
s = 9: (0, 93, 21, 22, 13, 6, 54, 38, 31, 73, 37, 0)
s = 10: (0, 64, 16, 13, 15, 6, 111, 52, 26, 70, 25, 0)
s = 11: (0, 44, 13, 15, 9, 15, 72, 45, 28, 80, 18, 0)
s = 12: (0, 50, 28, 24, 12, 8, 103, 54, 25, 94, 22, 0)
s = 13: (0, 60, 16, 19, 13, 14, 92, 51, 31, 76, 23, 0)
s = 14: (0, 41, 25, 19, 8, 9, 127, 73, 30, 90, 18, 0)
s = 15: (0, 72, 20, 20, 13, 14, 90, 39, 42, 86, 23, 0)
s = 16: (0, 67, 15, 22, 10, 7, 55, 47, 25, 94, 16, 0)
s = 17: (0, 59, 16, 14, 12, 8, 68, 38, 49, 109, 25, 0)
s = 18: (0, 103, 13, 15, 9, 7, 63, 58, 36, 58, 27, 0)
s = 19: (0, 47, 11, 12, 12, 14, 145, 46, 28, 46, 32, 0)
s = 20: (0, 35, 16, 9, 11, 11, 73, 31, 19, 99, 34, 0)
s = 21: (0, 41, 13, 16, 10, 12, 103, 47, 26, 44, 33, 0)
s = 22: (0, 56, 10, 21, 14, 10, 101, 36, 34, 73, 24, 0)
s = 23: (0, 78, 8, 10, 17, 7, 99, 56, 53, 50, 32, 0)
s = 24: (0, 81, 11, 12, 10, 11, 83, 42, 25, 90, 33, 0)
s = 25: (0, 48, 11, 11, 13, 8, 140, 35, 42, 47, 21, 0)
s = 26: (0, 103, 13, 11, 13, 10, 64, 60, 21, 58, 37, 0)
s = 27: (0, 78, 15, 18, 11, 8, 103, 45, 19, 76, 33, 0)
s = 28: (0, 57, 11, 20, 15, 12, 124, 47, 19, 46, 31, 0)
s = 29: (0, 67, 12, 12, 9, 9, 142, 27, 18, 81, 27, 0)
s = 30: (0, 105, 18, 13, 19, 10, 75, 29, 39, 80, 23, 0)
s = 31: (0, 50, 24, 19, 13, 15, 73, 32, 39, 51, 28, 0)
s = 32: (0, 89, 12, 15, 17, 7, 107, 59, 19, 102, 29, 0)
s = 33: (0, 78, 14, 12, 16, 12, 57, 72, 23, 68, 35, 0)
s = 34: (0, 88, 26, 15, 9, 13, 101, 37, 33, 86, 23, 0)
s = 35: (0, 86, 11, 18, 16, 11, 72, 30, 30, 50, 18, 0)
s = 36: (0, 47, 11, 12, 12, 12, 78, 39, 16, 65, 36, 0)
s = 37: (0, 47, 12, 12, 12, 11, 99, 36, 23, 47, 14, 0)
s = 38: (0, 58, 16, 17, 14, 15, 91, 68, 21, 46, 19, 0)
s = 39: (0, 79, 10, 10, 13, 10, 64, 35, 25, 123, 23, 0)
s = 40: (0, 63, 12, 14, 21, 9, 71, 40, 24, 47, 17, 0)
s = 41: (0, 54, 10, 8, 8, 7, 52, 44, 22, 91, 20, 0)
s = 42: (0, 85, 21, 13, 21, 10, 78, 31, 24, 52, 40, 0)
s = 43: (0, 63, 16, 16, 19, 10, 104, 48, 29, 79, 30, 0)
s = 44: (0, 71, 12, 10, 17, 14, 108, 55, 20, 103, 18, 0)
s = 45: (0, 54, 18, 15, 12, 8, 65, 64, 39, 62, 15, 0)
s = 46: (0, 68, 9, 25, 10, 17, 80, 34, 40, 98, 27, 0)
s = 47: (0, 40, 19, 17, 17, 9, 66, 43, 37, 93, 27, 0)
s = 48: (0, 40, 23, 16, 14, 9, 100, 63, 26, 50, 21, 0)
s = 49: (0, 58, 19, 25, 24, 8, 80, 39, 25, 73, 13, 0)
s = 50: (0, 38, 17, 15, 16, 8, 119, 32, 50, 86, 16, 0)
s = 51: (0, 74, 13, 15, 13, 7, 93, 26, 32, 72, 31, 0)
s = 52: (0, 55, 9, 16, 11, 11, 51, 62, 29, 37, 36, 0)
s = 53: (0, 59, 13, 10, 12, 7, 87, 38, 33, 52, 25, 0)
s = 54: (0, 70, 11, 20, 11, 9, 92, 61, 26, 62, 20, 0)
s = 55: (0, 67, 11, 13, 15, 11, 116, 47, 25, 47, 17, 0)
s = 56: (0, 86, 16, 15, 10, 8, 76, 44, 25, 112, 26, 0)
s = 57: (0, 71, 17, 16, 13, 7, 123, 48, 38, 86, 23, 0)
s = 58: (0, 43, 10, 19, 14, 6, 138, 58, 43, 73, 14, 0)
s = 59: (0, 43, 14, 15, 12, 7, 71, 40, 46, 117, 29, 0)
s = 60: (0, 44, 23, 10, 12, 14, 77, 56, 32, 51, 20, 0)
s = 61: (0, 58, 13, 15, 11, 16, 58, 47, 18, 45, 35, 0)
s = 62: (0, 83, 12, 16, 21, 7, 94, 80, 26, 69, 19, 0)
s = 63: (0, 61, 12, 27, 14, 8, 130, 42, 29, 109, 26, 0)
s = 64: (0, 54, 17, 24, 12, 17, 110, 29, 27, 60, 17, 0)
s = 65: (0, 55, 14, 13, 15, 11, 68, 38, 25, 67, 35, 0)
s = 66: (0, 72, 19, 11, 13, 8, 83, 65, 33, 109, 19, 0)
s = 67: (0, 73, 16, 18, 13, 14, 83, 54, 29, 126, 24, 0)
s = 68: (0, 55, 14, 17, 18, 9, 106, 32, 36, 55, 22, 0)
s = 69: (0, 59, 17, 13, 13, 8, 81, 40, 23, 58, 24, 0)
s = 70: (0, 74, 13, 17, 17, 9, 82, 36, 33, 85, 17, 0)
s = 71: (0, 59, 17, 12, 13, 10, 115, 35, 22, 93, 16, 0)
s = 72: (0, 85, 16, 16, 12, 11, 56, 36, 22, 75, 30, 0)
s = 73: (0, 51, 9, 22, 11, 8, 137, 72, 27, 72, 23, 0)
s = 74: (0, 88, 10, 12, 8, 8, 71, 35, 22, 89, 32, 0)
s = 75: (0, 93, 18, 19, 15, 8, 104, 48, 21, 73, 17, 0)
s = 76: (0, 78, 15, 15, 19, 9, 59, 55, 37, 62, 28, 0)
s = 77: (0, 84, 15, 17, 17, 6, 126, 34, 25, 71, 23, 0)
s = 78: (0, 72, 10, 14, 13, 6, 84, 42, 24, 66, 22, 0)
s = 79: (0, 90, 15, 16, 19, 10, 53, 52, 33, 73, 28, 0)
s = 80: (0, 102, 14, 13, 11, 8, 99, 46, 16, 96, 17, 0)
s = 81: (0, 101, 16, 16, 16, 6, 91, 50, 21, 56, 23, 0)
s = 82: (0, 49, 21, 17, 10, 14, 86, 32, 28, 87, 16, 0)
s = 83: (0, 101, 13, 12, 9, 12, 72, 44, 36, 51, 26, 0)
s = 84: (0, 54, 20, 10, 14, 11, 146, 30, 25, 76, 28, 0)
s = 85: (0, 58, 16, 11, 10, 15, 88, 52, 16, 39, 16, 0)
s = 86: (0, 42, 14, 14, 12, 9, 87, 49, 26, 64, 21, 0)
s = 87: (0, 57, 21, 15, 10, 12, 75, 36, 28, 78, 32, 0)
s = 88: (0, 95, 15, 23, 10, 14, 112, 54, 34, 47, 45, 0)
s = 89: (0, 47, 16, 21, 16, 12, 122, 36, 29, 40, 17, 0)
s = 90: (0, 97, 14, 18, 19, 12, 95, 54, 27, 61, 24, 0)
s = 91: (0, 68, 16, 25, 21, 7, 101, 61, 16, 46, 30, 0)
s = 92: (0, 76, 16, 12, 10, 8, 48, 51, 32, 58, 22, 0)
s = 93: (0, 41, 14, 15, 23, 14, 111, 48, 42, 52, 25, 0)
s = 94: (0, 55, 15, 20, 17, 13, 90, 52, 35, 61, 34, 0)
s = 95: (0, 67, 15, 19, 12, 11, 76, 41, 36, 70, 33, 0)
s = 96: (0, 85, 10, 23, 11, 8, 153, 39, 19, 94, 18, 0)
s = 97: (0, 99, 10, 10, 12, 9, 111, 32, 47, 60, 26, 0)
s = 98: (0, 86, 13, 20, 17, 13, 50, 41, 22, 52, 19, 0)
s = 99: (0, 42, 15, 17, 12, 10, 154, 54, 22, 60, 26, 0)
s = 100: (0, 58, 21, 17, 9, 10, 137, 33, 32, 58, 14, 0)
s = 101: (0, 44, 11, 20, 19, 12, 100, 65, 23, 63, 34, 0)
s = 102: (0, 41, 15, 21, 8, 6, 62, 42, 19, 78, 23, 0)
s = 103: (0, 64, 16, 18, 15, 9, 86, 37, 17, 79, 18, 0)
s = 104: (0, 54, 17, 9, 19, 10, 90, 31, 32, 74, 20, 0)
s = 105: (0, 77, 11, 10, 13, 6, 96, 56, 31, 43, 23, 0)
s = 106: (0, 66, 15, 19, 13, 9, 85, 32, 23, 65, 24, 0)
s = 107: (0, 108, 9, 19, 15, 11, 59, 37, 36, 68, 20, 0)
s = 108: (0, 43, 9, 23, 12, 9, 73, 55, 22, 49, 16, 0)
s = 109: (0, 71, 9, 14, 16, 9, 69, 59, 24, 117, 19, 0)
s = 110: (0, 48, 16, 9, 18, 6, 122, 50, 30, 60, 23, 0)
s = 111: (0, 91, 14, 19, 14, 10, 113, 50, 27, 59, 23, 0)
s = 112: (0, 71, 17, 16, 10, 9, 72, 41, 23, 67, 25, 0)
s = 113: (0, 61, 10, 18, 16, 10, 113, 36, 24, 51, 20, 0)
s = 114: (0, 47, 14, 13, 18, 11, 61, 39, 25, 71, 18, 0)
s = 115: (0, 42, 14, 13, 9, 10, 73, 54, 40, 98, 17, 0)
s = 116: (0, 98, 11, 19, 10, 7, 94, 30, 22, 68, 17, 0)
s = 117: (0, 71, 12, 11, 21, 10, 128, 35, 22, 65, 34, 0)
s = 118: (0, 80, 13, 12, 12, 14, 53, 54, 25, 94, 19, 0)
s = 119: (0, 81, 19, 16, 14, 17, 92, 55, 54, 71, 22, 0)
s = 120: (0, 66, 20, 15, 14, 6, 78, 53, 38, 70, 37, 0)
s = 121: (0, 95, 23, 14, 11, 11, 80, 34, 27, 56, 21, 0)
s = 122: (0, 79, 11, 18, 14, 9, 63, 40, 42, 68, 25, 0)
s = 123: (0, 54, 12, 22, 15, 9, 111, 32, 27, 108, 32, 0)
s = 124: (0, 54, 10, 20, 16, 14, 83, 31, 43, 58, 22, 0)
s = 125: (0, 73, 12, 13, 18, 11, 82, 38, 32, 88, 25, 0)
s = 126: (0, 97, 16, 15, 13, 6, 157, 43, 21, 92, 22, 0)
s = 127: (0, 60, 10, 9, 14, 10, 60, 71, 29, 64, 18, 0)
s = 128: (0, 91, 16, 12, 9, 7, 130, 62, 27, 100, 25, 0)
s = 129: (0, 47, 17, 14, 9, 13, 120, 48, 26, 106, 17, 0)
s = 130: (0, 80, 14, 15, 9, 13, 106, 31, 21, 54, 30, 0)
s = 131: (0, 93, 21, 15, 10, 8, 55, 26, 37, 67, 15, 0)
s = 132: (0, 57, 14, 10, 21, 12, 144, 32, 22, 74, 17, 0)
s = 133: (0, 47, 14, 19, 22, 12, 68, 35, 34, 60, 31, 0)
s = 134: (0, 61, 17, 16, 9, 11, 105, 51, 20, 63, 28, 0)
s = 135: (0, 48, 17, 11, 16, 16, 106, 62, 24, 65, 39, 0)
s = 136: (0, 96, 23, 20, 9, 9, 75, 40, 57, 114, 22, 0)
s = 137: (0, 63, 10, 11, 17, 11, 86, 75, 29, 80, 17, 0)
s = 138: (0, 76, 17, 15, 16, 17, 164, 29, 19, 67, 18, 0)
s = 139: (0, 52, 11, 21, 9, 13, 106, 50, 19, 50, 38, 0)
s = 140: (0, 112, 10, 11, 15, 12, 124, 47, 16, 68, 21, 0)
s = 141: (0, 73, 13, 13, 17, 7, 52, 42, 39, 55, 22, 0)
s = 142: (0, 101, 24, 10, 15, 8, 135, 47, 34, 90, 14, 0)
s = 143: (0, 63, 15, 17, 21, 9, 68, 52, 38, 82, 27, 0)
s = 144: (0, 67, 19, 25, 14, 9, 78, 70, 25, 66, 19, 0)
s = 145: (0, 87, 11, 10, 20, 10, 78, 29, 27, 58, 26, 0)
s = 146: (0, 81, 12, 17, 11, 11, 84, 45, 39, 78, 18, 0)
s = 147: (0, 71, 9, 22, 10, 16, 85, 47, 19, 75, 39, 0)
s = 148: (0, 69, 10, 18, 14, 16, 58, 38, 39, 81, 32, 0)
s = 149: (0, 110, 12, 11, 18, 12, 119, 33, 38, 75, 17, 0)
s = 150: (0, 65, 19, 13, 13, 13, 135, 67, 32, 75, 17, 0)
s = 151: (0, 57, 15, 17, 14, 15, 72, 72, 18, 95, 37, 0)
s = 152: (0, 69, 18, 8, 20, 7, 118, 67, 33, 55, 38, 0)
s = 153: (0, 42, 12, 11, 19, 8, 86, 55, 29, 50, 29, 0)
s = 154: (0, 44, 14, 16, 15, 8, 104, 51, 29, 107, 22, 0)
s = 155: (0, 70, 17, 12, 15, 12, 73, 31, 18, 53, 21, 0)
s = 156: (0, 62, 18, 17, 11, 9, 87, 37, 21, 79, 39, 0)
s = 157: (0, 95, 19, 14, 8, 10, 109, 54, 25, 52, 14, 0)
s = 158: (0, 83, 12, 19, 15, 8, 77, 54, 18, 70, 22, 0)
s = 159: (0, 60, 18, 14, 13, 8, 106, 57, 24, 62, 19, 0)
s = 160: (0, 56, 12, 14, 10, 11, 57, 54, 25, 51, 18, 0)
s = 161: (0, 37, 9, 15, 21, 15, 96, 52, 24, 56, 35, 0)
s = 162: (0, 78, 14, 15, 21, 10, 81, 61, 29, 72, 17, 0)
s = 163: (0, 76, 14, 14, 19, 10, 74, 41, 21, 62, 24, 0)
s = 164: (0, 74, 13, 11, 21, 8, 77, 26, 34, 59, 35, 0)
s = 165: (0, 75, 10, 10, 11, 7, 85, 68, 24, 86, 15, 0)
s = 166: (0, 55, 13, 18, 7, 9, 115, 30, 28, 65, 26, 0)
s = 167: (0, 57, 19, 19, 17, 12, 97, 44, 28, 86, 27, 0)
s = 168: (0, 46, 11, 21, 16, 9, 61, 66, 21, 38, 18, 0)
s = 169: (0, 41, 24, 14, 13, 14, 91, 39, 19, 94, 25, 0)
s = 170: (0, 66, 14, 14, 12, 17, 73, 57, 23, 51, 29, 0)
s = 171: (0, 63, 12, 9, 10, 12, 58, 49, 19, 76, 29, 0)
s = 172: (0, 42, 11, 22, 14, 12, 61, 37, 25, 63, 18, 0)
s = 173: (0, 95, 16, 11, 21, 6, 152, 36, 31, 83, 35, 0)
s = 174: (0, 63, 13, 13, 17, 8, 107, 37, 27, 97, 37, 0)
s = 175: (0, 48, 13, 11, 22, 9, 89, 37, 30, 75, 18, 0)
s = 176: (0, 41, 10, 14, 11, 15, 70, 62, 16, 85, 23, 0)
s = 177: (0, 101, 9, 14, 10, 14, 51, 45, 33, 89, 16, 0)
s = 178: (0, 48, 26, 11, 13, 10, 118, 77, 34, 58, 43, 0)
s = 179: (0, 46, 9, 26, 10, 12, 113, 57, 19, 62, 30, 0)
s = 180: (0, 108, 15, 19, 19, 8, 97, 43, 29, 41, 24, 0)
s = 181: (0, 53, 22, 20, 11, 11, 59, 36, 19, 50, 33, 0)
s = 182: (0, 69, 17, 10, 11, 7, 94, 62, 29, 67, 16, 0)
s = 183: (0, 51, 14, 10, 11, 11, 58, 37, 31, 68, 26, 0)
s = 184: (0, 46, 10, 12, 20, 10, 88, 52, 46, 64, 29, 0)
s = 185: (0, 80, 10, 12, 16, 9, 155, 36, 30, 84, 27, 0)
s = 186: (0, 47, 20, 16, 13, 9, 55, 41, 30, 46, 17, 0)
s = 187: (0, 85, 9, 10, 13, 8, 55, 38, 25, 94, 35, 0)
s = 188: (0, 87, 22, 20, 13, 14, 58, 40, 28, 41, 20, 0)
s = 189: (0, 67, 20, 13, 15, 14, 79, 40, 23, 61, 24, 0)
s = 190: (0, 44, 17, 16, 13, 10, 69, 39, 17, 50, 18, 0)
s = 191: (0, 65, 19, 17, 8, 9, 87, 38, 43, 57, 20, 0)
s = 192: (0, 49, 17, 11, 20, 13, 129, 57, 28, 83, 27, 0)
s = 193: (0, 46, 14, 10, 22, 17, 97, 53, 26, 69, 20, 0)
s = 194: (0, 84, 9, 17, 10, 10, 83, 30, 51, 60, 43, 0)
s = 195: (0, 76, 11, 11, 13, 12, 70, 68, 22, 81, 25, 0)
s = 196: (0, 63, 8, 12, 9, 9, 106, 69, 27, 59, 26, 0)
s = 197: (0, 43, 18, 15, 17, 12, 56, 38, 18, 81, 33, 0)
s = 198: (0, 41, 17, 16, 12, 15, 64, 31, 17, 91, 31, 0)
s = 199: (0, 49, 15, 21, 15, 9, 143, 49, 32, 58, 26, 0)
s = 200: (0, 85, 14, 21, 13, 14, 109, 54, 20, 69, 19, 0)
************************************************************************
ES/LS-VALUES:
jobnr.   ES(i)    LS(i)
------------------------------------------------------------------------
  0        0        0
  1        0       69
  2        0       72
  3        0       56
  4        8       78
  5        1       72
  6        1       58
  7       13       74
  8       13       79
  9       13       71
 10       18       80
 11       25       84
************************************************************************
BIG-M-VALUES:
M1 = 52, M2 = 404
************************************************************************
